1798584
42,37,20,2,41,31,55,29,40,24,28,59,22,48,18,53,12,46,19,3,47,1,26,16,8,57,14,7,35,58,15,62,23,60,11,39,4,5,63,66,6,33,45,54,25,65,10,0,64,44,67,34,50,38,61,36,52,49,27,43,13,51,32,56,17,9,30,21